c colouring generated by benchmark framework
p edge 500 62624
v 1 3
v 2 16
v 3 11
v 4 52
v 5 23
v 6 15
v 7 33
v 8 62
v 9 0
v 10 33
v 11 0
v 12 36
v 13 65
v 14 61
v 15 8
v 16 1
v 17 45
v 18 46
v 19 53
v 20 5
v 21 40
v 22 36
v 23 33
v 24 10
v 25 31
v 26 18
v 27 8
v 28 17
v 29 49
v 30 64
v 31 29
v 32 11
v 33 30
v 34 2
v 35 49
v 36 55
v 37 29
v 38 20
v 39 34
v 40 15
v 41 10
v 42 27
v 43 45
v 44 7
v 45 17
v 46 21
v 47 40
v 48 70
v 49 68
v 50 3
v 51 14
v 52 30
v 53 7
v 54 4
v 55 61
v 56 66
v 57 51
v 58 69
v 59 59
v 60 29
v 61 30
v 62 51
v 63 0
v 64 32
v 65 1
v 66 11
v 67 21
v 68 59
v 69 63
v 70 50
v 71 16
v 72 58
v 73 59
v 74 0
v 75 68
v 76 3
v 77 69
v 78 28
v 79 50
v 80 13
v 81 16
v 82 39
v 83 46
v 84 12
v 85 62
v 86 10
v 87 39
v 88 17
v 89 38
v 90 16
v 91 5
v 92 9
v 93 32
v 94 64
v 95 28
v 96 31
v 97 12
v 98 56
v 99 17
v 100 48
v 101 21
v 102 52
v 103 35
v 104 50
v 105 20
v 106 24
v 107 60
v 108 23
v 109 57
v 110 61
v 111 22
v 112 23
v 113 56
v 114 40
v 115 59
v 116 57
v 117 52
v 118 36
v 119 47
v 120 10
v 121 66
v 122 65
v 123 25
v 124 27
v 125 3
v 126 33
v 127 49
v 128 4
v 129 32
v 130 37
v 131 67
v 132 6
v 133 26
v 134 42
v 135 63
v 136 0
v 137 64
v 138 4
v 139 32
v 140 27
v 141 14
v 142 27
v 143 39
v 144 20
v 145 70
v 146 32
v 147 13
v 148 66
v 149 63
v 150 26
v 151 48
v 152 58
v 153 2
v 154 10
v 155 29
v 156 47
v 157 37
v 158 2
v 159 39
v 160 50
v 161 4
v 162 62
v 163 46
v 164 37
v 165 70
v 166 19
v 167 13
v 168 50
v 169 64
v 170 1
v 171 20
v 172 69
v 173 2
v 174 12
v 175 15
v 176 40
v 177 54
v 178 27
v 179 30
v 180 50
v 181 54
v 182 37
v 183 56
v 184 20
v 185 61
v 186 44
v 187 33
v 188 34
v 189 41
v 190 34
v 191 5
v 192 24
v 193 66
v 194 18
v 195 4
v 196 53
v 197 48
v 198 54
v 199 34
v 200 33
v 201 49
v 202 57
v 203 26
v 204 13
v 205 42
v 206 7
v 207 45
v 208 1
v 209 14
v 210 23
v 211 22
v 212 2
v 213 19
v 214 26
v 215 6
v 216 47
v 217 57
v 218 70
v 219 64
v 220 47
v 221 0
v 222 13
v 223 52
v 224 30
v 225 40
v 226 41
v 227 44
v 228 25
v 229 46
v 230 11
v 231 42
v 232 2
v 233 67
v 234 6
v 235 52
v 236 68
v 237 34
v 238 19
v 239 57
v 240 58
v 241 9
v 242 65
v 243 54
v 244 19
v 245 41
v 246 33
v 247 6
v 248 6
v 249 18
v 250 43
v 251 3
v 252 57
v 253 7
v 254 21
v 255 68
v 256 0
v 257 17
v 258 21
v 259 28
v 260 66
v 261 19
v 262 51
v 263 12
v 264 67
v 265 26
v 266 41
v 267 20
v 268 55
v 269 4
v 270 25
v 271 41
v 272 51
v 273 32
v 274 1
v 275 19
v 276 61
v 277 65
v 278 12
v 279 55
v 280 62
v 281 6
v 282 22
v 283 16
v 284 9
v 285 63
v 286 14
v 287 43
v 288 35
v 289 37
v 290 56
v 291 50
v 292 24
v 293 41
v 294 52
v 295 63
v 296 31
v 297 11
v 298 9
v 299 46
v 300 23
v 301 2
v 302 1
v 303 39
v 304 53
v 305 29
v 306 54
v 307 38
v 308 8
v 309 30
v 310 48
v 311 55
v 312 13
v 313 15
v 314 44
v 315 12
v 316 60
v 317 40
v 318 32
v 319 65
v 320 18
v 321 54
v 322 29
v 323 9
v 324 20
v 325 62
v 326 5
v 327 53
v 328 41
v 329 3
v 330 22
v 331 10
v 332 27
v 333 10
v 334 29
v 335 58
v 336 0
v 337 64
v 338 27
v 339 55
v 340 64
v 341 38
v 342 18
v 343 31
v 344 6
v 345 67
v 346 43
v 347 43
v 348 24
v 349 21
v 350 50
v 351 65
v 352 68
v 353 7
v 354 12
v 355 22
v 356 38
v 357 59
v 358 20
v 359 14
v 360 37
v 361 28
v 362 70
v 363 3
v 364 53
v 365 36
v 366 34
v 367 24
v 368 16
v 369 33
v 370 5
v 371 30
v 372 40
v 373 9
v 374 5
v 375 25
v 376 13
v 377 60
v 378 54
v 379 23
v 380 48
v 381 47
v 382 42
v 383 47
v 384 35
v 385 20
v 386 11
v 387 59
v 388 29
v 389 8
v 390 49
v 391 25
v 392 14
v 393 45
v 394 37
v 395 69
v 396 70
v 397 16
v 398 28
v 399 56
v 400 9
v 401 22
v 402 43
v 403 1
v 404 49
v 405 60
v 406 45
v 407 34
v 408 34
v 409 64
v 410 38
v 411 6
v 412 26
v 413 18
v 414 23
v 415 60
v 416 25
v 417 9
v 418 35
v 419 46
v 420 8
v 421 2
v 422 46
v 423 24
v 424 24
v 425 26
v 426 26
v 427 21
v 428 48
v 429 42
v 430 19
v 431 56
v 432 32
v 433 7
v 434 44
v 435 4
v 436 7
v 437 4
v 438 10
v 439 44
v 440 30
v 441 2
v 442 14
v 443 42
v 444 56
v 445 24
v 446 39
v 447 45
v 448 21
v 449 43
v 450 51
v 451 54
v 452 16
v 453 55
v 454 20
v 455 7
v 456 28
v 457 56
v 458 35
v 459 28
v 460 27
v 461 69
v 462 1
v 463 25
v 464 37
v 465 36
v 466 13
v 467 11
v 468 5
v 469 38
v 470 17
v 471 28
v 472 15
v 473 22
v 474 7
v 475 31
v 476 8
v 477 55
v 478 21
v 479 44
v 480 31
v 481 44
v 482 63
v 483 15
v 484 46
v 485 66
v 486 35
v 487 36
v 488 38
v 489 23
v 490 63
v 491 7
v 492 18
v 493 8
v 494 17
v 495 18
v 496 22
v 497 65
v 498 61
v 499 43
v 500 63
